(set-logic HORN)
(declare-fun state (Int (Array Int Int) (Array Int Int) (Array Int Int) (Array Int Int) Int Int (Array Int Int) (Array Int Int) Int Int Int Int Bool Int Int Int Int Int Int Int Int Bool Bool Bool Bool (Array Int Int) Bool) Bool)
(assert (forall ((|A_9| Int) (|B_9| (Array Int Int)) (|C_9| (Array Int Int)) (|D_9| (Array Int Int)) (|E_9| (Array Int Int)) (|F_9| Int) (|G_9| Int) (|H_9| (Array Int Int)) (|I_9| (Array Int Int)) (|J_9| Int) (|K_9| Int) (|L_9| Int) (|M_9| Int) (|N_9| Bool) (|O_9| Int) (|P_9| Int) (|Q_9| Int) (|X_5| Int) (|S_9| Int) (|T_9| Int) (|U_9| Int) (|Y_4| Int) (|W_9| Bool) (|.loc.4| Bool) (|.loc.5| Bool) (|.loc.6| Bool) (|X_0| (Array Int Int)) (|X_4| Bool) (|.x.288| Int) (|.x.286| (Array Int Int)) (|.x.284| Int) (|.x.282| (Array Int Int)) (|.x.278| Int) (|.x.280| (Array Int Int)) (|.x.295| Int) (|.x.299| Int) (|W_12| Bool) (|.x.279| (Array Int Int)) (|.x.289| Int) (|.x.291| Bool) (|.x.292| Int) (|.x.297| Int) (|.x.298| Int) (|.x.296| Int) (|.loc.8| Bool) (|.x.294| Int) (|.x.281| (Array Int Int)) (|.loc.7| Bool) (|.loc.9| Bool) (|.x.293| Int) (|.x.290| Int) (|.x.287| Int) (|.x.283| Int) (|.x.285| (Array Int Int)) (|.xtv.1| (Array Int Int)) (|.xtv.2| Bool)) (=> (and (and (and (not .loc.5) (not .loc.4)) (not .loc.6)) (and (and (and (and (and (= D_9 E_9) (not W_9)) (= F_9 G_9)) (= J_9 K_9)) (= H_9 I_9)) (= B_9 C_9))) (state |A_9| |B_9| |C_9| |D_9| |E_9| |F_9| |G_9| |H_9| |I_9| |J_9| |K_9| |L_9| |M_9| |N_9| |O_9| |P_9| |Q_9| |X_5| |S_9| |T_9| |U_9| |Y_4| |W_9| |.loc.4| |.loc.5| |.loc.6| |X_0| |X_4|))))
(assert (forall ((|A_9| Int) (|B_9| (Array Int Int)) (|C_9| (Array Int Int)) (|D_9| (Array Int Int)) (|E_9| (Array Int Int)) (|F_9| Int) (|G_9| Int) (|H_9| (Array Int Int)) (|I_9| (Array Int Int)) (|J_9| Int) (|K_9| Int) (|L_9| Int) (|M_9| Int) (|N_9| Bool) (|O_9| Int) (|P_9| Int) (|Q_9| Int) (|X_5| Int) (|S_9| Int) (|T_9| Int) (|U_9| Int) (|Y_4| Int) (|W_9| Bool) (|.loc.4| Bool) (|.loc.5| Bool) (|.loc.6| Bool) (|X_0| (Array Int Int)) (|X_4| Bool) (|.x.288| Int) (|.x.286| (Array Int Int)) (|.x.284| Int) (|.x.282| (Array Int Int)) (|.x.278| Int) (|.x.280| (Array Int Int)) (|.x.295| Int) (|.x.299| Int) (|W_12| Bool) (|.x.279| (Array Int Int)) (|.x.289| Int) (|.x.291| Bool) (|.x.292| Int) (|.x.297| Int) (|.x.298| Int) (|.x.296| Int) (|.loc.8| Bool) (|.x.294| Int) (|.x.281| (Array Int Int)) (|.loc.7| Bool) (|.loc.9| Bool) (|.x.293| Int) (|.x.290| Int) (|.x.287| Int) (|.x.283| Int) (|.x.285| (Array Int Int)) (|.xtv.1| (Array Int Int)) (|.xtv.2| Bool)) (=> (and (state |A_9| |B_9| |C_9| |D_9| |E_9| |F_9| |G_9| |H_9| |I_9| |J_9| |K_9| |L_9| |M_9| |N_9| |O_9| |P_9| |Q_9| |X_5| |S_9| |T_9| |U_9| |Y_4| |W_9| |.loc.4| |.loc.5| |.loc.6| |X_0| |X_4|) (let ((.def_38 (not .loc.5))) (let ((.def_39 (not .loc.4))) (let ((.def_41 (not .loc.6))) (let ((.def_74 (= .x.295 0))) (let ((.def_82 (or W_9 (and (= .x.295 .x.299) (= .x.299 (ite N_9 1 0)))))) (let ((.def_86 (= B_9 .x.279))) (let ((.def_89 (= L_9 .x.289))) (let ((.def_92 (= N_9 .x.291))) (let ((.def_95 (= O_9 .x.292))) (let ((.def_98 (= T_9 .x.297))) (let ((.def_101 (= U_9 .x.298))) (let ((.def_112 (= W_9 W_12))) (let ((.def_114 (= Y_4 .x.299))) (let ((.def_116 (= X_5 .x.295))) (let ((.def_133 (not (<= 10000 (+ Q_9 (* (- 4294967296) (to_int (* (/ 1 4294967296) (to_real Q_9))))))))) (let ((.def_171 (and .def_86 .def_89))) (let ((.def_172 (and .def_95 .def_171))) (let ((.def_179 (not .loc.8))) (let ((.def_202 (not .loc.7))) (let ((.def_239 (+ P_9 (* (- 4294967296) (to_int (* (/ 1 4294967296) (to_real P_9))))))) (let ((.def_240 (<= 10000 .def_239))) (let ((.def_245 (and .def_101 (and .def_98 (and .def_95 (and .def_92 .def_171)))))) (let ((.def_254 (not .loc.9))) (let ((.def_272 (and .def_254 (and .def_41 (and .def_116 (and .def_114 (and .def_112 (and .loc.8 (and .loc.7 (and .def_38 (and .loc.4 (and .def_101 (and .def_98 (and .def_95 (and .def_92 (and .def_89 (and W_9 .def_86))))))))))))))))) (let ((.def_276 (= P_9 .x.293))) (let ((.def_278 (= M_9 .x.290))) (let ((.def_295 (= D_9 .x.281))) (and (and (= K_9 .x.288) (and (= I_9 .x.286) (and (= G_9 .x.284) (and (= E_9 .x.282) (and (= A_9 .x.278) (= C_9 .x.280)))))) (or (and (or (and (or (and (or .def_272 (or (or (and (or (or (and (or (or (and (or (and .def_39 (and (or W_9 .def_74) (and (and (and (and (and (and (and .def_82 W_12) .def_86) .def_89) .def_92) .def_95) .def_98) .def_101))) (and (or W_9 (= .x.279 (store B_9 O_9 0))) (and (and (and (and .loc.4 (or W_12 (= .x.289 .x.296))) .def_112) .def_114) .def_116))) (and (and .loc.6 .def_38) .loc.8)) (and (or W_9 (= X_4 .def_133)) (and (or W_12 (and (and X_4 (= .x.291 (= (+ .x.297 (+ (* (- 4294967296) (to_int (* (/ 1 4294967296) (to_real .x.297)))) (+ (* (- 1) .x.294) (* 4294967296 (to_int (* (/ 1 4294967296) (to_real .x.294))))))) 0))) (= .x.297 (select (select .x.281 .x.292) (+ .x.298 (* 4 (ite (<= (+ .x.294 (* (- 4294967296) (to_int (* (/ 1 4294967296) (to_real .x.294))))) 2147483647) (+ .x.294 (* (- 4294967296) (to_int (* (/ 1 4294967296) (to_real .x.294))))) (+ (- 4294967296) (+ .x.294 (* (- 4294967296) (to_int (* (/ 1 4294967296) (to_real .x.294))))))))))))) (and .def_41 (and (and .def_116 (and .def_114 (and .def_112 (and .loc.5 (and .loc.4 (and .def_101 .def_172)))))) .def_179))))) (and (or W_9 (= .x.291 .def_133)) (and (or W_12 (not .x.291)) (and .def_41 (and .def_179 (and .def_116 (and .def_114 (and .def_112 (and .loc.5 (and .loc.4 (and .def_101 (and .def_98 .def_172)))))))))))) .def_202) (and (or W_12 (not .def_74)) (and .def_179 (and .def_112 (and .loc.7 (and .def_38 (and .def_39 (and .loc.6 (and .def_101 (and .def_98 (and .def_95 (and .def_92 (and .def_89 (and .def_82 .def_86)))))))))))))) (and .def_179 (and .loc.7 (and .def_38 (and .def_39 (and .loc.6 (and .def_101 (and .def_98 (and .def_95 (and .def_92 (and .def_89 (and .def_86 (and .def_82 (and W_9 W_12)))))))))))))) .loc.9) (and (or W_9 .def_240) (and (and .def_41 (and .def_116 (and .def_114 (and .def_112 (and .loc.8 (and .loc.7 (and .def_39 (and .loc.5 .def_245)))))))) .def_254))) .def_272)) (and .def_276 .def_278)) (and (or W_9 (= M_9 .x.293)) (and .def_254 (and .def_41 (and .def_116 (and .def_114 (and .def_112 (and .def_202 (and .loc.8 (and .def_38 (and .loc.4 .def_245))))))))))) (and (= Q_9 .x.294) .def_295)) (and (or W_9 (and (= .x.281 (store D_9 O_9 (store (select D_9 O_9) (+ U_9 (* 4 (ite (<= .def_239 2147483647) .def_239 (+ (- 4294967296) .def_239)))) P_9))) (and (not .def_240) (= P_9 .x.294)))) (and .def_254 (and .def_41 (and .def_179 (and .def_116 (and .def_114 (and .def_112 (and .loc.7 (and .def_39 (and .loc.5 (and .def_101 (and .def_98 (and .def_276 (and .def_95 (and .def_92 (and .def_171 .def_278))))))))))))))))) (and (= S_9 .x.296) (and (= J_9 .x.287) (and (= F_9 .x.283) (= H_9 .x.285))))) (and (or W_9 (and (and (= .x.287 0) (= .x.283 0)) (= X_0 (store B_9 0 0)))) (and (or W_12 (and (and (and (and (and (and (and (not (<= .x.278 .x.292)) (= .x.293 0)) (= .x.294 0)) (= .x.298 0)) (not (= .x.292 0))) (= (select X_0 .x.292) 0)) (= .x.285 (store H_9 .x.292 40000))) (= .x.279 (store X_0 .x.292 1)))) (and .def_254 (and .def_41 (and .def_179 (and .def_116 (and .def_114 (and .def_112 (and .loc.7 (and .def_38 (and .def_39 (and .def_89 .def_295)))))))))))))))))))))))))))))))))))))))))) (state |.x.278| |.x.279| |.x.280| |.x.281| |.x.282| |.x.283| |.x.284| |.x.285| |.x.286| |.x.287| |.x.288| |.x.289| |.x.290| |.x.291| |.x.292| |.x.293| |.x.294| |.x.295| |.x.296| |.x.297| |.x.298| |.x.299| |W_12| |.loc.7| |.loc.8| |.loc.9| |.xtv.1| |.xtv.2|))))
(assert (forall ((|A_9| Int) (|B_9| (Array Int Int)) (|C_9| (Array Int Int)) (|D_9| (Array Int Int)) (|E_9| (Array Int Int)) (|F_9| Int) (|G_9| Int) (|H_9| (Array Int Int)) (|I_9| (Array Int Int)) (|J_9| Int) (|K_9| Int) (|L_9| Int) (|M_9| Int) (|N_9| Bool) (|O_9| Int) (|P_9| Int) (|Q_9| Int) (|X_5| Int) (|S_9| Int) (|T_9| Int) (|U_9| Int) (|Y_4| Int) (|W_9| Bool) (|.loc.4| Bool) (|.loc.5| Bool) (|.loc.6| Bool) (|X_0| (Array Int Int)) (|X_4| Bool) (|.x.288| Int) (|.x.286| (Array Int Int)) (|.x.284| Int) (|.x.282| (Array Int Int)) (|.x.278| Int) (|.x.280| (Array Int Int)) (|.x.295| Int) (|.x.299| Int) (|W_12| Bool) (|.x.279| (Array Int Int)) (|.x.289| Int) (|.x.291| Bool) (|.x.292| Int) (|.x.297| Int) (|.x.298| Int) (|.x.296| Int) (|.loc.8| Bool) (|.x.294| Int) (|.x.281| (Array Int Int)) (|.loc.7| Bool) (|.loc.9| Bool) (|.x.293| Int) (|.x.290| Int) (|.x.287| Int) (|.x.283| Int) (|.x.285| (Array Int Int)) (|.xtv.1| (Array Int Int)) (|.xtv.2| Bool)) (=> (state |A_9| |B_9| |C_9| |D_9| |E_9| |F_9| |G_9| |H_9| |I_9| |J_9| |K_9| |L_9| |M_9| |N_9| |O_9| |P_9| |Q_9| |X_5| |S_9| |T_9| |U_9| |Y_4| |W_9| |.loc.4| |.loc.5| |.loc.6| |X_0| |X_4|) (not (and W_9 (and .loc.6 (and .loc.5 (not .loc.4))))))))
(check-sat)
